Route #1: 35 8 43 3 11 2 17 44 6 31 18 25 15
Route #2: 9 23 13
Route #3: 24 29 28 26 5 20 38 40 14
Route #4: 
Route #5: 27 19 22 39 41 34 16 30 36 45 4 10 7 21 32 42 12 37 33 1
Route #6: 
cost 880.0037346615983
